WARNING: for repeatability, setting FPU to use double precision
============================[ Problem Statistics ]=============================
|                                                                             |
|  Number of variables:         11069                                         |
|  Number of clauses:          237609                                         |
|  Parse time:                   0.05 s                                       |
|  Eliminated clauses:           0.07 Mb                                      |
|  Simplification time:          0.27 s                                       |
|                                                                             |
============================[ Search Statistics ]==============================
| Conflicts |          ORIGINAL         |          LEARNT          | Progress |
|           |    Vars  Clauses Literals |    Limit  Clauses Lit/Cl |          |
===============================================================================
|       100 |    5748    65677   139124 |    24081       99     30 | 28.485 % |
|       250 |    5748    65677   139124 |    26489      249     24 | 28.485 % |
===============================================================================
restarts              : 4
conflicts             : 433            (1386 /sec)
decisions             : 1003           (0.00 % random) (3210 /sec)
propagations          : 178380         (570816 /sec)
conflict literals     : 8838           (30.66 % deleted)
Memory used           : 32.64 MB
CPU time              : 0.3125 s

SATISFIABLE
